NAME : KROD99C
TYPE : PDTSP
DIMENSION : 99
EDGE_WEIGHT_TYPE : EUC_2D
NODE_COORD_SECTION
1 2995 264
2 202 233
3 981 848
4 1346 408
5 781 670
6 1009 1001
7 2927 1777
8 2982 949
9 555 1121
10 464 1302
11 3452 637
12 571 1982
13 2656 128
14 1623 1723
15 2067 694
16 1725 927
17 3600 459
18 1109 1196
19 366 339
20 778 1282
21 386 1616
22 3918 1217
23 3332 1049
24 2597 349
25 811 1295
26 241 1069
27 2658 360
28 394 1944
29 3786 1862
30 264 36
31 2050 1833
32 3538 125
33 1646 1817
34 2993 624
35 547 25
36 3373 1902
37 460 267
38 3060 781
39 1828 456
40 1021 962
41 2347 388
42 3535 1112
43 1529 581
44 1203 385
45 1787 1902
46 2740 1101
47 555 1753
48 47 363
49 3935 540
50 3062 329
51 387 199
52 2901 920
53 931 512
54 1766 692
55 401 980
56 149 1629
57 2214 1977
58 3805 1619
59 1179 969
60 1017 333
61 2834 1512
62 1819 814
63 1393 859
64 1768 1578
65 3023 871
66 3248 1906
67 1632 1742
68 2223 990
69 3868 697
70 1541 354
71 2374 1944
72 1962 389
73 3007 1524
74 3220 1945
75 2356 1568
76 1604 706
77 2028 1736
78 2581 121
79 2221 1578
80 2944 632
81 1082 1561
82 997 942
83 2334 523
84 1264 1090
85 1699 1294
86 235 1059
87 2592 248
88 3642 699
89 3599 514
90 1766 678
91 240 619
92 1272 246
93 3503 301
94 80 1533
95 1677 1238
96 3766 154
97 3946 459
98 1994 1852
99 278 165
PICKUP_AND_DELIVERY_SECTION
1 0 0 0 0 0 0
2 0 0 0 0 29 0
3 0 0 0 0 73 0
4 0 0 0 0 0 13
5 0 0 0 0 0 84
6 0 0 0 0 0 75
7 0 0 0 0 35 0
8 0 0 0 0 0 42
9 0 0 0 0 53 0
10 0 0 0 0 60 0
11 0 0 0 0 17 0
12 0 0 0 0 14 0
13 0 0 0 0 4 0
14 0 0 0 0 0 12
15 0 0 0 0 0 85
16 0 0 0 0 24 0
17 0 0 0 0 0 11
18 0 0 0 0 37 0
19 0 0 0 0 54 0
20 0 0 0 0 92 0
21 0 0 0 0 31 0
22 0 0 0 0 0 81
23 0 0 0 0 0 72
24 0 0 0 0 0 16
25 0 0 0 0 0 64
26 0 0 0 0 47 0
27 0 0 0 0 0 44
28 0 0 0 0 82 0
29 0 0 0 0 0 2
30 0 0 0 0 38 0
31 0 0 0 0 0 21
32 0 0 0 0 0 69
33 0 0 0 0 87 0
34 0 0 0 0 98 0
35 0 0 0 0 0 7
36 0 0 0 0 0 78
37 0 0 0 0 0 18
38 0 0 0 0 0 30
39 0 0 0 0 0 91
40 0 0 0 0 66 0
41 0 0 0 0 56 0
42 0 0 0 0 8 0
43 0 0 0 0 0 89
44 0 0 0 0 27 0
45 0 0 0 0 0 93
46 0 0 0 0 0 52
47 0 0 0 0 0 26
48 0 0 0 0 86 0
49 0 0 0 0 95 0
50 0 0 0 0 80 0
51 0 0 0 0 0 94
52 0 0 0 0 46 0
53 0 0 0 0 0 9
54 0 0 0 0 0 19
55 0 0 0 0 0 68
56 0 0 0 0 0 41
57 0 0 0 0 0 90
58 0 0 0 0 0 65
59 0 0 0 0 88 0
60 0 0 0 0 0 10
61 0 0 0 0 99 0
62 0 0 0 0 0 71
63 0 0 0 0 79 0
64 0 0 0 0 25 0
65 0 0 0 0 58 0
66 0 0 0 0 0 40
67 0 0 0 0 0 97
68 0 0 0 0 55 0
69 0 0 0 0 32 0
70 0 0 0 0 0 77
71 0 0 0 0 62 0
72 0 0 0 0 23 0
73 0 0 0 0 0 3
74 0 0 0 0 0 76
75 0 0 0 0 6 0
76 0 0 0 0 74 0
77 0 0 0 0 70 0
78 0 0 0 0 36 0
79 0 0 0 0 0 63
80 0 0 0 0 0 50
81 0 0 0 0 22 0
82 0 0 0 0 0 28
83 0 0 0 0 0 96
84 0 0 0 0 5 0
85 0 0 0 0 15 0
86 0 0 0 0 0 48
87 0 0 0 0 0 33
88 0 0 0 0 0 59
89 0 0 0 0 43 0
90 0 0 0 0 57 0
91 0 0 0 0 39 0
92 0 0 0 0 0 20
93 0 0 0 0 45 0
94 0 0 0 0 51 0
95 0 0 0 0 0 49
96 0 0 0 0 83 0
97 0 0 0 0 67 0
98 0 0 0 0 0 34
99 0 0 0 0 0 61
DEPOT_SECTION
1 
-1
EOF
